Solver command line: ['C:\\Users\\Paul Wilhelm\\PycharmProjects\\burn4h2\\venv\\Scripts\\python.exe']

Set parameter Username
Academic license - for non-commercial use only - expires 2024-07-10
Read LP format model from file C:\Users\PAULWI~1\AppData\Local\Temp\tmp6ivqg_hp.pyomo.lp
Reading time = 0.01 seconds
obj: 877 rows, 839 columns, 2087 nonzeros
Gurobi Optimizer version 10.0.2 build v10.0.2rc0 (win64)

CPU model: Intel(R) Xeon(R) CPU E5-1607 v2 @ 3.00GHz, instruction set [SSE2|AVX]
Thread count: 4 physical cores, 4 logical processors, using up to 4 threads

Optimize a model with 877 rows, 839 columns and 2087 nonzeros
Model fingerprint: 0xd5296aaf
Model has 47 quadratic constraints
Variable types: 624 continuous, 215 integer (168 binary)
Coefficient statistics:
  Matrix range     [1e-04, 3e+02]
  QMatrix range    [1e+00, 3e+00]
  QLMatrix range   [1e+00, 1e+00]
  Objective range  [1e+01, 6e+01]
  Bounds range     [1e+00, 3e+00]
  RHS range        [2e-02, 1e+01]
Presolve removed 569 rows and 579 columns
Presolve time: 0.01s
Presolved: 308 rows, 260 columns, 864 nonzeros
Variable types: 142 continuous, 118 integer (118 binary)
Found heuristic solution: objective 458.0578665
Found heuristic solution: objective 455.4977539

Root relaxation: objective -1.247498e+03, 31 iterations, 0.00 seconds (0.00 work units)

    Nodes    |    Current Node    |     Objective Bounds      |     Work
 Expl Unexpl |  Obj  Depth IntInf | Incumbent    BestBd   Gap | It/Node Time

*    0     0               0    -1247.498306 -1247.4983  0.00%     -    0s

Explored 1 nodes (31 simplex iterations) in 0.02 seconds (0.00 work units)
Thread count was 4 (of 4 available processors)

Solution count 3: -1247.5 455.498 458.058 
No other solutions better than -1247.5

Optimal solution found (tolerance 1.00e-04)
Best objective -1.247498305684e+03, best bound -1.247498305684e+03, gap 0.0000%

